PatchBench/BenchmarksExist/linux/CWE-189-Numeric-Errors/CVE_2012_0044_a5cd335165e31db9dbab636fd29895d41da55dd2/drm_mode_dirtyfb_ioctl_SnippetExist32.smt2
; benchmark generated from python API
(set-info :status unknown)
(declare-fun rdi () (_ BitVec 64))
(assert
 (let ((?x68 ((_ extract 31 31) rdi)))
 (let (($x77 (= ?x68 (_ bv0 1))))
 (let ((?x9 ((_ extract 31 0) rdi)))
 (let (($x60 (bvsle ?x9 (_ bv256 32))))
 (let (($x54 (= ?x9 (_ bv0 32))))
 (let (($x55 (not $x54)))
 (let (($x305 (or (and (not $x60) $x77 $x55) (and $x60 $x77 $x55 (= ?x9 (_ bv4294967274 32))) (and (not $x77) $x55))))
 (let (($x300 (= ?x9 (_ bv4294967274 32))))
 (let (($x2608 (or $x54 (and $x55 $x300 $x305) (and $x55 (= ?x9 (_ bv234 32)) $x60 $x77) (and $x55 (= ?x9 (_ bv106 32)) $x60 $x77) (and $x55 (= ?x9 (_ bv42 32)) $x60 $x77) (and $x55 (= ?x9 (_ bv170 32)) $x60 $x77) (and $x55 (= ?x9 (_ bv10 32)) $x60 $x77) (and $x55 (= ?x9 (_ bv138 32)) $x60 $x77) (and $x55 (= ?x9 (_ bv8 32)) $x60 $x77) (and $x55 (= ?x9 (_ bv136 32)) $x60 $x77) (and $x55 (= ?x9 (_ bv40 32)) $x60 $x77) (and $x55 (= ?x9 (_ bv168 32)) $x60 $x77) (and $x55 (= ?x9 (_ bv12 32)) $x60 $x77) (and $x55 (= ?x9 (_ bv44 32)) $x60 $x77) (and $x55 (= ?x9 (_ bv140 32)) $x60 $x77) (and $x55 (= ?x9 (_ bv172 32)) $x60 $x77) (and $x55 (= ?x9 (_ bv72 32)) $x60 $x77) (and $x55 (= ?x9 (_ bv104 32)) $x60 $x77) (and $x55 (= ?x9 (_ bv200 32)) $x60 $x77) (and $x55 (= ?x9 (_ bv232 32)) $x60 $x77) (and $x55 (= ?x9 (_ bv76 32)) $x60 $x77) (and $x55 (= ?x9 (_ bv204 32)) $x60 $x77) (and $x55 (= ?x9 (_ bv236 32)) $x60 $x77) (and $x55 (= ?x9 (_ bv108 32)) $x60 $x77) (and $x55 (= ?x9 (_ bv9 32)) $x60 $x77) (and $x55 (= ?x9 (_ bv41 32)) $x60 $x77) (and $x55 (= ?x9 (_ bv137 32)) $x60 $x77) (and $x55 (= ?x9 (_ bv169 32)) $x60 $x77) (and $x55 (= ?x9 (_ bv73 32)) $x60 $x77) (and $x55 (= ?x9 (_ bv201 32)) $x60 $x77) (and $x55 (= ?x9 (_ bv105 32)) $x60 $x77) (and $x55 (= ?x9 (_ bv233 32)) $x60 $x77) (and $x55 (= ?x9 (_ bv13 32)) $x60 $x77) (and $x55 (= ?x9 (_ bv141 32)) $x60 $x77) (and $x55 (= ?x9 (_ bv45 32)) $x60 $x77) (and $x55 (= ?x9 (_ bv173 32)) $x60 $x77) (and $x55 (= ?x9 (_ bv77 32)) $x60 $x77) (and $x55 (= ?x9 (_ bv109 32)) $x60 $x77) (and $x55 (= ?x9 (_ bv237 32)) $x60 $x77) (and $x55 (= ?x9 (_ bv205 32)) $x60 $x77) (and $x55 (= ?x9 (_ bv29 32)) $x60 $x77) (and $x55 (= ?x9 (_ bv61 32)) $x60 $x77) (and $x55 (= ?x9 (_ bv157 32)) $x60 $x77) (and $x55 (= ?x9 (_ bv189 32)) $x60 $x77) (and $x55 (= ?x9 (_ bv93 32)) $x60 $x77) (and $x55 (= ?x9 (_ bv221 32)) $x60 $x77) (and $x55 (= ?x9 (_ bv253 32)) $x60 $x77) (and $x55 (= ?x9 (_ bv125 32)) $x60 $x77) (and $x55 (= ?x9 (_ bv28 32)) $x60 $x77) (and $x55 (= ?x9 (_ bv60 32)) $x60 $x77) (and $x55 (= ?x9 (_ bv156 32)) $x60 $x77) (and $x55 (= ?x9 (_ bv188 32)) $x60 $x77) (and $x55 (= ?x9 (_ bv92 32)) $x60 $x77) (and $x55 (= ?x9 (_ bv220 32)) $x60 $x77) (and $x55 (= ?x9 (_ bv252 32)) $x60 $x77) (and $x55 (= ?x9 (_ bv124 32)) $x60 $x77) (and $x55 (= ?x9 (_ bv24 32)) $x60 $x77) (and $x55 (= ?x9 (_ bv56 32)) $x60 $x77) (and $x55 (= ?x9 (_ bv152 32)) $x60 $x77) (and $x55 (= ?x9 (_ bv184 32)) $x60 $x77) (and $x55 (= ?x9 (_ bv25 32)) $x60 $x77) (and $x55 (= ?x9 (_ bv153 32)) $x60 $x77) (and $x55 (= ?x9 (_ bv57 32)) $x60 $x77) (and $x55 (= ?x9 (_ bv185 32)) $x60 $x77) (and $x55 (= ?x9 (_ bv88 32)) $x60 $x77) (and $x55 (= ?x9 (_ bv120 32)) $x60 $x77) (and $x55 (= ?x9 (_ bv216 32)) $x60 $x77) (and $x55 (= ?x9 (_ bv248 32)) $x60 $x77) (and $x55 (= ?x9 (_ bv89 32)) $x60 $x77) (and $x55 (= ?x9 (_ bv121 32)) $x60 $x77) (and $x55 (= ?x9 (_ bv217 32)) $x60 $x77) (and $x55 (= ?x9 (_ bv249 32)) $x60 $x77) (and $x55 (= ?x9 (_ bv74 32)) $x60 $x77) (and $x55 (= ?x9 (_ bv202 32)) $x60 $x77) (and $x55 (= ?x9 (_ bv90 32)) $x60 $x77) (and $x55 (= ?x9 (_ bv218 32)) $x60 $x77) (and $x55 (= ?x9 (_ bv122 32)) $x60 $x77) (and $x55 (= ?x9 (_ bv250 32)) $x60 $x77) (and $x55 (= ?x9 (_ bv26 32)) $x60 $x77) (and $x55 (= ?x9 (_ bv154 32)) $x60 $x77) (and $x55 (= ?x9 (_ bv186 32)) $x60 $x77) (and $x55 (= ?x9 (_ bv58 32)) $x60 $x77) (and $x55 (= ?x9 (_ bv11 32)) $x60 $x77) (and $x55 (= ?x9 (_ bv43 32)) $x60 $x77) (and $x55 (= ?x9 (_ bv139 32)) $x60 $x77) (and $x55 (= ?x9 (_ bv171 32)) $x60 $x77) (and $x55 (= ?x9 (_ bv75 32)) $x60 $x77) (and $x55 (= ?x9 (_ bv107 32)) $x60 $x77) (and $x55 (= ?x9 (_ bv203 32)) $x60 $x77) (and $x55 (= ?x9 (_ bv235 32)) $x60 $x77) (and $x55 (= ?x9 (_ bv27 32)) $x60 $x77) (and $x55 (= ?x9 (_ bv59 32)) $x60 $x77) (and $x55 (= ?x9 (_ bv155 32)) $x60 $x77) (and $x55 (= ?x9 (_ bv187 32)) $x60 $x77) (and $x55 (= ?x9 (_ bv91 32)) $x60 $x77) (and $x55 (= ?x9 (_ bv123 32)) $x60 $x77) (and $x55 (= ?x9 (_ bv251 32)) $x60 $x77) (and $x55 (= ?x9 (_ bv219 32)) $x60 $x77) (and $x55 (= ?x9 (_ bv14 32)) $x60 $x77) (and $x55 (= ?x9 (_ bv142 32)) $x60 $x77) (and $x55 (= ?x9 (_ bv46 32)) $x60 $x77) (and $x55 (= ?x9 (_ bv174 32)) $x60 $x77) (and $x55 (= ?x9 (_ bv78 32)) $x60 $x77) (and $x55 (= ?x9 (_ bv206 32)) $x60 $x77) (and $x55 (= ?x9 (_ bv110 32)) $x60 $x77) (and $x55 (= ?x9 (_ bv238 32)) $x60 $x77) (and $x55 (= ?x9 (_ bv15 32)) $x60 $x77) (and $x55 (= ?x9 (_ bv143 32)) $x60 $x77) (and $x55 (= ?x9 (_ bv47 32)) $x60 $x77) (and $x55 (= ?x9 (_ bv175 32)) $x60 $x77) (and $x55 (= ?x9 (_ bv79 32)) $x60 $x77) (and $x55 (= ?x9 (_ bv207 32)) $x60 $x77) (and $x55 (= ?x9 (_ bv239 32)) $x60 $x77) (and $x55 (= ?x9 (_ bv111 32)) $x60 $x77) (and $x55 (= ?x9 (_ bv30 32)) $x60 $x77) (and $x55 (= ?x9 (_ bv62 32)) $x60 $x77) (and $x55 (= ?x9 (_ bv158 32)) $x60 $x77) (and $x55 (= ?x9 (_ bv190 32)) $x60 $x77) (and $x55 (= ?x9 (_ bv31 32)) $x60 $x77) (and $x55 (= ?x9 (_ bv63 32)) $x60 $x77) (and $x55 (= ?x9 (_ bv159 32)) $x60 $x77) (and $x55 (= ?x9 (_ bv191 32)) $x60 $x77) (and $x55 (= ?x9 (_ bv94 32)) $x60 $x77) (and $x55 (= ?x9 (_ bv222 32)) $x60 $x77) (and $x55 (= ?x9 (_ bv126 32)) $x60 $x77) (and $x55 (= ?x9 (_ bv254 32)) $x60 $x77) (and $x55 (= ?x9 (_ bv95 32)) $x60 $x77) (and $x55 (= ?x9 (_ bv223 32)) $x60 $x77) (and $x55 (= ?x9 (_ bv127 32)) $x60 $x77) (and $x55 (= ?x9 (_ bv255 32)) $x60 $x77) (and $x55 (= ?x9 (_ bv128 32)) $x60 $x77) (and $x55 (= ?x9 (_ bv32 32)) $x60 $x77) (and $x55 (= ?x9 (_ bv160 32)) $x60 $x77) (and $x55 (= ?x9 (_ bv4 32)) $x60 $x77) (and $x55 (= ?x9 (_ bv132 32)) $x60 $x77) (and $x55 (= ?x9 (_ bv36 32)) $x60 $x77) (and $x55 (= ?x9 (_ bv164 32)) $x60 $x77) (and $x55 (= ?x9 (_ bv1 32)) $x60 $x77) (and $x55 (= ?x9 (_ bv33 32)) $x60 $x77) (and $x55 (= ?x9 (_ bv129 32)) $x60 $x77) (and $x55 (= ?x9 (_ bv161 32)) $x60 $x77) (and $x55 (= ?x9 (_ bv5 32)) $x60 $x77) (and $x55 (= ?x9 (_ bv133 32)) $x60 $x77) (and $x55 (= ?x9 (_ bv165 32)) $x60 $x77) (and $x55 (= ?x9 (_ bv37 32)) $x60 $x77) (and $x55 (= ?x9 (_ bv256 32)) $x60 $x77) (and $x55 (= ?x9 (_ bv64 32)) $x60 $x77) (and $x55 (= ?x9 (_ bv192 32)) $x60 $x77) (and $x55 (= ?x9 (_ bv96 32)) $x60 $x77) (and $x55 (= ?x9 (_ bv224 32)) $x60 $x77) (and $x55 (= ?x9 (_ bv65 32)) $x60 $x77) (and $x55 (= ?x9 (_ bv97 32)) $x60 $x77) (and $x55 (= ?x9 (_ bv193 32)) $x60 $x77) (and $x55 (= ?x9 (_ bv225 32)) $x60 $x77) (and $x55 (= ?x9 (_ bv68 32)) $x60 $x77) (and $x55 (= ?x9 (_ bv196 32)) $x60 $x77) (and $x55 (= ?x9 (_ bv100 32)) $x60 $x77) (and $x55 (= ?x9 (_ bv228 32)) $x60 $x77) (and $x55 (= ?x9 (_ bv69 32)) $x60 $x77) (and $x55 (= ?x9 (_ bv197 32)) $x60 $x77) (and $x55 (= ?x9 (_ bv101 32)) $x60 $x77) (and $x55 (= ?x9 (_ bv229 32)) $x60 $x77) (and $x55 (= ?x9 (_ bv80 32)) $x60 $x77) (and $x55 (= ?x9 (_ bv208 32)) $x60 $x77) (and $x55 (= ?x9 (_ bv112 32)) $x60 $x77) (and $x55 (= ?x9 (_ bv240 32)) $x60 $x77) (and $x55 (= ?x9 (_ bv84 32)) $x60 $x77) (and $x55 (= ?x9 (_ bv116 32)) $x60 $x77) (and $x55 (= ?x9 (_ bv212 32)) $x60 $x77) (and $x55 (= ?x9 (_ bv244 32)) $x60 $x77) (and $x55 (= ?x9 (_ bv81 32)) $x60 $x77) (and $x55 (= ?x9 (_ bv209 32)) $x60 $x77) (and $x55 (= ?x9 (_ bv113 32)) $x60 $x77) (and $x55 (= ?x9 (_ bv241 32)) $x60 $x77) (and $x55 (= ?x9 (_ bv85 32)) $x60 $x77) (and $x55 (= ?x9 (_ bv213 32)) $x60 $x77) (and $x55 (= ?x9 (_ bv245 32)) $x60 $x77) (and $x55 (= ?x9 (_ bv117 32)) $x60 $x77) (and $x55 (= ?x9 (_ bv16 32)) $x60 $x77) (and $x55 (= ?x9 (_ bv144 32)) $x60 $x77) (and $x55 (= ?x9 (_ bv48 32)) $x60 $x77) (and $x55 (= ?x9 (_ bv176 32)) $x60 $x77) (and $x55 (= ?x9 (_ bv17 32)) $x60 $x77) (and $x55 (= ?x9 (_ bv49 32)) $x60 $x77) (and $x55 (= ?x9 (_ bv145 32)) $x60 $x77) (and $x55 (= ?x9 (_ bv177 32)) $x60 $x77) (and $x55 (= ?x9 (_ bv21 32)) $x60 $x77) (and $x55 (= ?x9 (_ bv149 32)) $x60 $x77) (and $x55 (= ?x9 (_ bv53 32)) $x60 $x77) (and $x55 (= ?x9 (_ bv181 32)) $x60 $x77) (and $x55 (= ?x9 (_ bv20 32)) $x60 $x77) (and $x55 (= ?x9 (_ bv52 32)) $x60 $x77) (and $x55 (= ?x9 (_ bv148 32)) $x60 $x77) (and $x55 (= ?x9 (_ bv180 32)) $x60 $x77) (and $x55 (= ?x9 (_ bv2 32)) $x60 $x77) (and $x55 (= ?x9 (_ bv130 32)) $x60 $x77) (and $x55 (= ?x9 (_ bv34 32)) $x60 $x77) (and $x55 (= ?x9 (_ bv162 32)) $x60 $x77) (and $x55 (= ?x9 (_ bv3 32)) $x60 $x77) (and $x55 (= ?x9 (_ bv35 32)) $x60 $x77) (and $x55 (= ?x9 (_ bv131 32)) $x60 $x77) (and $x55 (= ?x9 (_ bv163 32)) $x60 $x77) (and $x55 (= ?x9 (_ bv6 32)) $x60 $x77) (and $x55 (= ?x9 (_ bv134 32)) $x60 $x77) (and $x55 (= ?x9 (_ bv38 32)) $x60 $x77) (and $x55 (= ?x9 (_ bv166 32)) $x60 $x77) (and $x55 (= ?x9 (_ bv7 32)) $x60 $x77) (and $x55 (= ?x9 (_ bv135 32)) $x60 $x77) (and $x55 (= ?x9 (_ bv39 32)) $x60 $x77) (and $x55 (= ?x9 (_ bv167 32)) $x60 $x77) (and $x55 (= ?x9 (_ bv18 32)) $x60 $x77) (and $x55 (= ?x9 (_ bv146 32)) $x60 $x77) (and $x55 (= ?x9 (_ bv50 32)) $x60 $x77) (and $x55 (= ?x9 (_ bv178 32)) $x60 $x77) (and $x55 (= ?x9 (_ bv22 32)) $x60 $x77) (and $x55 (= ?x9 (_ bv54 32)) $x60 $x77) (and $x55 (= ?x9 (_ bv150 32)) $x60 $x77) (and $x55 (= ?x9 (_ bv182 32)) $x60 $x77) (and $x55 (= ?x9 (_ bv19 32)) $x60 $x77) (and $x55 (= ?x9 (_ bv147 32)) $x60 $x77) (and $x55 (= ?x9 (_ bv51 32)) $x60 $x77) (and $x55 (= ?x9 (_ bv179 32)) $x60 $x77) (and $x55 (= ?x9 (_ bv23 32)) $x60 $x77) (and $x55 (= ?x9 (_ bv151 32)) $x60 $x77) (and $x55 (= ?x9 (_ bv55 32)) $x60 $x77) (and $x55 (= ?x9 (_ bv183 32)) $x60 $x77) (and $x55 (= ?x9 (_ bv66 32)) $x60 $x77) (and $x55 (= ?x9 (_ bv98 32)) $x60 $x77) (and $x55 (= ?x9 (_ bv194 32)) $x60 $x77) (and $x55 (= ?x9 (_ bv226 32)) $x60 $x77) (and $x55 (= ?x9 (_ bv67 32)) $x60 $x77) (and $x55 (= ?x9 (_ bv195 32)) $x60 $x77) (and $x55 (= ?x9 (_ bv99 32)) $x60 $x77) (and $x55 (= ?x9 (_ bv227 32)) $x60 $x77) (and $x55 (= ?x9 (_ bv70 32)) $x60 $x77) (and $x55 (= ?x9 (_ bv102 32)) $x60 $x77) (and $x55 (= ?x9 (_ bv198 32)) $x60 $x77) (and $x55 (= ?x9 (_ bv230 32)) $x60 $x77) (and $x55 (= ?x9 (_ bv71 32)) $x60 $x77) (and $x55 (= ?x9 (_ bv103 32)) $x60 $x77) (and $x55 (= ?x9 (_ bv199 32)) $x60 $x77) (and $x55 (= ?x9 (_ bv231 32)) $x60 $x77) (and $x55 (= ?x9 (_ bv82 32)) $x60 $x77) (and $x55 (= ?x9 (_ bv210 32)) $x60 $x77) (and $x55 (= ?x9 (_ bv114 32)) $x60 $x77) (and $x55 (= ?x9 (_ bv242 32)) $x60 $x77) (and $x55 (= ?x9 (_ bv86 32)) $x60 $x77) (and $x55 (= ?x9 (_ bv118 32)) $x60 $x77) (and $x55 (= ?x9 (_ bv214 32)) $x60 $x77) (and $x55 (= ?x9 (_ bv246 32)) $x60 $x77) (and $x55 (= ?x9 (_ bv83 32)) $x60 $x77) (and $x55 (= ?x9 (_ bv211 32)) $x60 $x77) (and $x55 (= ?x9 (_ bv115 32)) $x60 $x77) (and $x55 (= ?x9 (_ bv243 32)) $x60 $x77) (and $x55 (= ?x9 (_ bv87 32)) $x60 $x77) (and $x55 (= ?x9 (_ bv119 32)) $x60 $x77) (and $x55 (= ?x9 (_ bv215 32)) $x60 $x77) (and $x55 (= ?x9 (_ bv247 32)) $x60 $x77))))
 (and $x2608)))))))))))
(check-sat)
